p cnf 38 109
a 19 36 0
e 1 2 3 4 5 6 7 8 9 10 11 12 13 14 15 16 17 18 20 21 22 23 24 25 26 27 28 29 30 31 32 33 34 35 37 38 0
1 2 -3 0
-1 -2 -3 0
1 -2 3 0
-1 2 3 0
6 4 0
6 5 0
-4 -5 -6 0
7 -3 0
7 -6 0
3 6 -7 0
7 8 -9 0
-7 -8 -9 0
7 -8 9 0
-7 8 9 0
-10 9 0
-10 -8 0
-9 8 10 0
1 8 -11 0
-1 -8 -11 0
1 -8 11 0
-1 8 11 0
-10 -11 -12 0
10 11 -12 0
-10 11 12 0
10 -11 12 0
13 6 -14 0
-13 -6 -14 0
13 -6 14 0
-13 6 14 0
12 -14 -15 0
-12 14 -15 0
12 14 15 0
-12 -14 15 0
3 -16 0
-3 -16 0
-2 17 0
2 17 0
5 -17 -18 0
-5 17 -18 0
5 17 18 0
-5 -17 18 0
-19 -17 0
-19 -17 0
17 19 0
20 1 0
20 19 0
-1 -19 -20 0
-18 -20 -21 0
18 20 -21 0
-18 20 21 0
18 -20 21 0
-22 -16 0
-22 -21 0
16 21 22 0
-24 17 0
-24 23 0
-17 -23 24 0
-5 -6 -25 0
5 6 -25 0
-5 6 25 0
5 -6 25 0
26 24 0
26 25 0
-24 -25 -26 0
27 22 0
27 -26 0
-22 26 -27 0
-28 15 0
-28 -27 0
-15 27 28 0
-30 5 0
-30 29 0
-5 -29 30 0
31 -5 0
31 -5 0
5 -31 0
-32 18 0
-32 -18 0
33 32 0
33 -19 0
-32 19 -33 0
6 -34 0
-6 -34 0
-33 34 -35 0
33 -34 -35 0
-33 -34 35 0
33 34 35 0
36 31 0
36 -35 0
-31 35 -36 0
-30 -36 -37 0
30 36 -37 0
-30 36 37 0
30 -36 37 0
-28 -37 -38 0
28 37 -38 0
-28 37 38 0
28 -37 38 0
35 -1 -31 -29 -19 -30 0
36 -33 -25 0
23 3 25 -29 -32 0
-16 -22 -24 -11 -19 23 0
-28 32 -4 -7 -11 1 0
3 1 -27 2 -12 -7 -23 0
6 1 -31 -33 22 0
-3 14 -22 2 0
-6 -28 -35 0
24 13 38 -28 31 -14 -10 0
38 0
